p cnf 836 2598
2 4 51 0
-2 4 -51 0
2 -4 -51 0
-2 -4 51 0
-10 -11 52 0
10 -11 -52 0
-10 11 -52 0
10 11 52 0
12 -13 53 0
-12 -13 -53 0
12 13 -53 0
-12 13 53 0
14 15 54 0
-14 15 -54 0
14 -15 -54 0
-14 -15 54 0
-16 20 55 0
16 20 -55 0
-16 -20 -55 0
16 -20 55 0
23 28 56 0
-23 28 -56 0
23 -28 -56 0
-23 -28 56 0
29 30 57 0
-29 30 -57 0
29 -30 -57 0
-29 -30 57 0
-31 -32 58 0
31 -32 -58 0
-31 32 -58 0
31 32 58 0
-34 36 59 0
34 36 -59 0
-34 -36 -59 0
34 -36 59 0
-37 38 60 0
37 38 -60 0
-37 -38 -60 0
37 -38 60 0
-39 -41 61 0
39 -41 -61 0
-39 41 -61 0
39 41 61 0
-44 -45 62 0
44 -45 -62 0
-44 45 -62 0
44 45 62 0
-48 -49 63 0
48 -49 -63 0
-48 49 -63 0
48 49 63 0
51 -52 64 0
-51 -52 -64 0
51 52 -64 0
-51 52 64 0
53 -54 65 0
-53 -54 -65 0
53 54 -65 0
-53 54 65 0
55 -56 66 0
-55 -56 -66 0
55 56 -66 0
-55 56 66 0
57 -58 67 0
-57 -58 -67 0
57 58 -67 0
-57 58 67 0
59 -60 68 0
-59 -60 -68 0
59 60 -68 0
-59 60 68 0
61 -62 69 0
-61 -62 -69 0
61 62 -69 0
-61 62 69 0
63 -64 70 0
-63 -64 -70 0
63 64 -70 0
-63 64 70 0
65 -66 71 0
-65 -66 -71 0
65 66 -71 0
-65 66 71 0
67 -68 72 0
-67 -68 -72 0
67 68 -72 0
-67 68 72 0
69 -70 73 0
-69 -70 -73 0
69 70 -73 0
-69 70 73 0
71 -72 74 0
-71 -72 -74 0
71 72 -74 0
-71 72 74 0
73 74 0
-73 -74 0
1 3 75 0
-1 3 -75 0
1 -3 -75 0
-1 -3 75 0
-5 6 76 0
5 6 -76 0
-5 -6 -76 0
5 -6 76 0
-7 9 77 0
7 9 -77 0
-7 -9 -77 0
7 -9 77 0
-10 -12 78 0
10 -12 -78 0
-10 12 -78 0
10 12 78 0
14 -16 79 0
-14 -16 -79 0
14 16 -79 0
-14 16 79 0
-19 20 80 0
19 20 -80 0
-19 -20 -80 0
19 -20 80 0
22 23 81 0
-22 23 -81 0
22 -23 -81 0
-22 -23 81 0
25 -26 82 0
-25 -26 -82 0
25 26 -82 0
-25 26 82 0
29 33 83 0
-29 33 -83 0
29 -33 -83 0
-29 -33 83 0
-34 -36 84 0
34 -36 -84 0
-34 36 -84 0
34 36 84 0
38 39 85 0
-38 39 -85 0
38 -39 -85 0
-38 -39 85 0
40 43 86 0
-40 43 -86 0
40 -43 -86 0
-40 -43 86 0
-44 -46 87 0
44 -46 -87 0
-44 46 -87 0
44 46 87 0
-47 48 88 0
47 48 -88 0
-47 -48 -88 0
47 -48 88 0
74 -75 89 0
-74 -75 -89 0
74 75 -89 0
-74 75 89 0
76 -77 90 0
-76 -77 -90 0
76 77 -90 0
-76 77 90 0
78 -79 91 0
-78 -79 -91 0
78 79 -91 0
-78 79 91 0
80 -81 92 0
-80 -81 -92 0
80 81 -92 0
-80 81 92 0
82 -83 93 0
-82 -83 -93 0
82 83 -93 0
-82 83 93 0
84 -85 94 0
-84 -85 -94 0
84 85 -94 0
-84 85 94 0
86 -87 95 0
-86 -87 -95 0
86 87 -95 0
-86 87 95 0
88 -89 96 0
-88 -89 -96 0
88 89 -96 0
-88 89 96 0
90 -91 97 0
-90 -91 -97 0
90 91 -97 0
-90 91 97 0
92 -93 98 0
-92 -93 -98 0
92 93 -98 0
-92 93 98 0
94 -95 99 0
-94 -95 -99 0
94 95 -99 0
-94 95 99 0
96 -97 100 0
-96 -97 -100 0
96 97 -100 0
-96 97 100 0
98 -99 101 0
-98 -99 -101 0
98 99 -101 0
-98 99 101 0
100 101 0
-100 -101 0
1 2 102 0
-1 2 -102 0
1 -2 -102 0
-1 -2 102 0
3 -5 103 0
-3 -5 -103 0
3 5 -103 0
-3 5 103 0
-6 7 104 0
6 7 -104 0
-6 -7 -104 0
6 -7 104 0
-8 9 105 0
8 9 -105 0
-8 -9 -105 0
8 -9 105 0
-10 12 106 0
10 12 -106 0
-10 -12 -106 0
10 -12 106 0
-13 -15 107 0
13 -15 -107 0
-13 15 -107 0
13 15 107 0
17 -18 108 0
-17 -18 -108 0
17 18 -108 0
-17 18 108 0
-19 -22 109 0
19 -22 -109 0
-19 22 -109 0
19 22 109 0
26 -27 110 0
-26 -27 -110 0
26 27 -110 0
-26 27 110 0
-28 -31 111 0
28 -31 -111 0
-28 31 -111 0
28 31 111 0
32 -33 112 0
-32 -33 -112 0
32 33 -112 0
-32 33 112 0
-36 -37 113 0
36 -37 -113 0
-36 37 -113 0
36 37 113 0
-39 40 114 0
39 40 -114 0
-39 -40 -114 0
39 -40 114 0
-43 44 115 0
43 44 -115 0
-43 -44 -115 0
43 -44 115 0
-46 -48 116 0
46 -48 -116 0
-46 48 -116 0
46 48 116 0
-49 -50 117 0
49 -50 -117 0
-49 50 -117 0
49 50 117 0
102 -103 118 0
-102 -103 -118 0
102 103 -118 0
-102 103 118 0
104 -105 119 0
-104 -105 -119 0
104 105 -119 0
-104 105 119 0
106 -107 120 0
-106 -107 -120 0
106 107 -120 0
-106 107 120 0
108 -109 121 0
-108 -109 -121 0
108 109 -121 0
-108 109 121 0
110 -111 122 0
-110 -111 -122 0
110 111 -122 0
-110 111 122 0
112 -113 123 0
-112 -113 -123 0
112 113 -123 0
-112 113 123 0
114 -115 124 0
-114 -115 -124 0
114 115 -124 0
-114 115 124 0
116 -117 125 0
-116 -117 -125 0
116 117 -125 0
-116 117 125 0
118 -119 126 0
-118 -119 -126 0
118 119 -126 0
-118 119 126 0
120 -121 127 0
-120 -121 -127 0
120 121 -127 0
-120 121 127 0
122 -123 128 0
-122 -123 -128 0
122 123 -128 0
-122 123 128 0
124 -125 129 0
-124 -125 -129 0
124 125 -129 0
-124 125 129 0
126 -127 130 0
-126 -127 -130 0
126 127 -130 0
-126 127 130 0
128 -129 131 0
-128 -129 -131 0
128 129 -131 0
-128 129 131 0
130 131 0
-130 -131 0
-2 4 132 0
2 4 -132 0
-2 -4 -132 0
2 -4 132 0
-6 -7 133 0
6 -7 -133 0
-6 7 -133 0
6 7 133 0
-12 13 134 0
12 13 -134 0
-12 -13 -134 0
12 -13 134 0
14 17 135 0
-14 17 -135 0
14 -17 -135 0
-14 -17 135 0
-25 -27 136 0
25 -27 -136 0
-25 27 -136 0
25 27 136 0
-31 -33 137 0
31 -33 -137 0
-31 33 -137 0
31 33 137 0
-35 38 138 0
35 38 -138 0
-35 -38 -138 0
35 -38 138 0
40 -42 139 0
-40 -42 -139 0
40 42 -139 0
-40 42 139 0
43 44 140 0
-43 44 -140 0
43 -44 -140 0
-43 -44 140 0
46 -49 141 0
-46 -49 -141 0
46 49 -141 0
-46 49 141 0
131 -132 142 0
-131 -132 -142 0
131 132 -142 0
-131 132 142 0
133 -134 143 0
-133 -134 -143 0
133 134 -143 0
-133 134 143 0
135 -136 144 0
-135 -136 -144 0
135 136 -144 0
-135 136 144 0
137 -138 145 0
-137 -138 -145 0
137 138 -145 0
-137 138 145 0
139 -140 146 0
-139 -140 -146 0
139 140 -146 0
-139 140 146 0
141 -142 147 0
-141 -142 -147 0
141 142 -147 0
-141 142 147 0
143 -144 148 0
-143 -144 -148 0
143 144 -148 0
-143 144 148 0
145 -146 149 0
-145 -146 -149 0
145 146 -149 0
-145 146 149 0
-147 -148 149 0
147 -148 -149 0
-147 148 -149 0
147 148 149 0
-1 2 150 0
1 2 -150 0
-1 -2 -150 0
1 -2 150 0
-5 7 151 0
5 7 -151 0
-5 -7 -151 0
5 -7 151 0
-8 -9 152 0
8 -9 -152 0
-8 9 -152 0
8 9 152 0
-10 -13 153 0
10 -13 -153 0
-10 13 -153 0
10 13 153 0
-16 -19 154 0
16 -19 -154 0
-16 19 -154 0
16 19 154 0
-21 -24 155 0
21 -24 -155 0
-21 24 -155 0
21 24 155 0
-25 -28 156 0
25 -28 -156 0
-25 28 -156 0
25 28 156 0
32 -33 157 0
-32 -33 -157 0
32 33 -157 0
-32 33 157 0
35 -40 158 0
-35 -40 -158 0
35 40 -158 0
-35 40 158 0
-42 43 159 0
42 43 -159 0
-42 -43 -159 0
42 -43 159 0
-44 -47 160 0
44 -47 -160 0
-44 47 -160 0
44 47 160 0
48 49 161 0
-48 49 -161 0
48 -49 -161 0
-48 -49 161 0
149 -150 162 0
-149 -150 -162 0
149 150 -162 0
-149 150 162 0
151 -152 163 0
-151 -152 -163 0
151 152 -163 0
-151 152 163 0
153 -154 164 0
-153 -154 -164 0
153 154 -164 0
-153 154 164 0
155 -156 165 0
-155 -156 -165 0
155 156 -165 0
-155 156 165 0
157 -158 166 0
-157 -158 -166 0
157 158 -166 0
-157 158 166 0
159 -160 167 0
-159 -160 -167 0
159 160 -167 0
-159 160 167 0
161 -162 168 0
-161 -162 -168 0
161 162 -168 0
-161 162 168 0
163 -164 169 0
-163 -164 -169 0
163 164 -169 0
-163 164 169 0
165 -166 170 0
-165 -166 -170 0
165 166 -170 0
-165 166 170 0
167 -168 171 0
-167 -168 -171 0
167 168 -171 0
-167 168 171 0
169 -170 172 0
-169 -170 -172 0
169 170 -172 0
-169 170 172 0
171 172 0
-171 -172 0
-1 5 173 0
1 5 -173 0
-1 -5 -173 0
1 -5 173 0
6 -8 174 0
-6 -8 -174 0
6 8 -174 0
-6 8 174 0
-12 14 175 0
12 14 -175 0
-12 -14 -175 0
12 -14 175 0
-15 -18 176 0
15 -18 -176 0
-15 18 -176 0
15 18 176 0
-19 21 177 0
19 21 -177 0
-19 -21 -177 0
19 -21 177 0
-30 31 178 0
30 31 -178 0
-30 -31 -178 0
30 -31 178 0
-33 -35 179 0
33 -35 -179 0
-33 35 -179 0
33 35 179 0
-36 37 180 0
36 37 -180 0
-36 -37 -180 0
36 -37 180 0
38 39 181 0
-38 39 -181 0
38 -39 -181 0
-38 -39 181 0
-40 41 182 0
40 41 -182 0
-40 -41 -182 0
40 -41 182 0
42 44 183 0
-42 44 -183 0
42 -44 -183 0
-42 -44 183 0
48 -49 184 0
-48 -49 -184 0
48 49 -184 0
-48 49 184 0
172 -173 185 0
-172 -173 -185 0
172 173 -185 0
-172 173 185 0
174 -175 186 0
-174 -175 -186 0
174 175 -186 0
-174 175 186 0
176 -177 187 0
-176 -177 -187 0
176 177 -187 0
-176 177 187 0
178 -179 188 0
-178 -179 -188 0
178 179 -188 0
-178 179 188 0
180 -181 189 0
-180 -181 -189 0
180 181 -189 0
-180 181 189 0
182 -183 190 0
-182 -183 -190 0
182 183 -190 0
-182 183 190 0
184 -185 191 0
-184 -185 -191 0
184 185 -191 0
-184 185 191 0
186 -187 192 0
-186 -187 -192 0
186 187 -192 0
-186 187 192 0
188 -189 193 0
-188 -189 -193 0
188 189 -193 0
-188 189 193 0
190 -191 194 0
-190 -191 -194 0
190 191 -194 0
-190 191 194 0
192 -193 195 0
-192 -193 -195 0
192 193 -195 0
-192 193 195 0
194 195 0
-194 -195 0
1 8 196 0
-1 8 -196 0
1 -8 -196 0
-1 -8 196 0
9 10 197 0
-9 10 -197 0
9 -10 -197 0
-9 -10 197 0
-11 12 198 0
11 12 -198 0
-11 -12 -198 0
11 -12 198 0
13 16 199 0
-13 16 -199 0
13 -16 -199 0
-13 -16 199 0
-17 19 200 0
17 19 -200 0
-17 -19 -200 0
17 -19 200 0
21 23 201 0
-21 23 -201 0
21 -23 -201 0
-21 -23 201 0
-24 -25 202 0
24 -25 -202 0
-24 25 -202 0
24 25 202 0
26 29 203 0
-26 29 -203 0
26 -29 -203 0
-26 -29 203 0
30 34 204 0
-30 34 -204 0
30 -34 -204 0
-30 -34 204 0
-35 37 205 0
35 37 -205 0
-35 -37 -205 0
35 -37 205 0
38 39 206 0
-38 39 -206 0
38 -39 -206 0
-38 -39 206 0
40 41 207 0
-40 41 -207 0
40 -41 -207 0
-40 -41 207 0
44 -49 208 0
-44 -49 -208 0
44 49 -208 0
-44 49 208 0
195 -196 209 0
-195 -196 -209 0
195 196 -209 0
-195 196 209 0
197 -198 210 0
-197 -198 -210 0
197 198 -210 0
-197 198 210 0
199 -200 211 0
-199 -200 -211 0
199 200 -211 0
-199 200 211 0
201 -202 212 0
-201 -202 -212 0
201 202 -212 0
-201 202 212 0
203 -204 213 0
-203 -204 -213 0
203 204 -213 0
-203 204 213 0
205 -206 214 0
-205 -206 -214 0
205 206 -214 0
-205 206 214 0
207 -208 215 0
-207 -208 -215 0
207 208 -215 0
-207 208 215 0
209 -210 216 0
-209 -210 -216 0
209 210 -216 0
-209 210 216 0
211 -212 217 0
-211 -212 -217 0
211 212 -217 0
-211 212 217 0
213 -214 218 0
-213 -214 -218 0
213 214 -218 0
-213 214 218 0
215 -216 219 0
-215 -216 -219 0
215 216 -219 0
-215 216 219 0
217 -218 220 0
-217 -218 -220 0
217 218 -220 0
-217 218 220 0
219 220 0
-219 -220 0
-1 -4 221 0
1 -4 -221 0
-1 4 -221 0
1 4 221 0
6 8 222 0
-6 8 -222 0
6 -8 -222 0
-6 -8 222 0
-12 13 223 0
12 13 -223 0
-12 -13 -223 0
12 -13 223 0
-14 -16 224 0
14 -16 -224 0
-14 16 -224 0
14 16 224 0
20 -24 225 0
-20 -24 -225 0
20 24 -225 0
-20 24 225 0
25 26 226 0
-25 26 -226 0
25 -26 -226 0
-25 -26 226 0
27 30 227 0
-27 30 -227 0
27 -30 -227 0
-27 -30 227 0
-33 34 228 0
33 34 -228 0
-33 -34 -228 0
33 -34 228 0
35 39 229 0
-35 39 -229 0
35 -39 -229 0
-35 -39 229 0
-41 -43 230 0
41 -43 -230 0
-41 43 -230 0
41 43 230 0
220 -221 231 0
-220 -221 -231 0
220 221 -231 0
-220 221 231 0
222 -223 232 0
-222 -223 -232 0
222 223 -232 0
-222 223 232 0
224 -225 233 0
-224 -225 -233 0
224 225 -233 0
-224 225 233 0
226 -227 234 0
-226 -227 -234 0
226 227 -234 0
-226 227 234 0
228 -229 235 0
-228 -229 -235 0
228 229 -235 0
-228 229 235 0
230 -231 236 0
-230 -231 -236 0
230 231 -236 0
-230 231 236 0
232 -233 237 0
-232 -233 -237 0
232 233 -237 0
-232 233 237 0
234 -235 238 0
-234 -235 -238 0
234 235 -238 0
-234 235 238 0
-236 -237 238 0
236 -237 -238 0
-236 237 -238 0
236 237 238 0
-2 3 239 0
2 3 -239 0
-2 -3 -239 0
2 -3 239 0
-8 9 240 0
8 9 -240 0
-8 -9 -240 0
8 -9 240 0
-13 14 241 0
13 14 -241 0
-13 -14 -241 0
13 -14 241 0
-16 -17 242 0
16 -17 -242 0
-16 17 -242 0
16 17 242 0
-20 23 243 0
20 23 -243 0
-20 -23 -243 0
20 -23 243 0
-24 -25 244 0
24 -25 -244 0
-24 25 -244 0
24 25 244 0
-26 32 245 0
26 32 -245 0
-26 -32 -245 0
26 -32 245 0
34 37 246 0
-34 37 -246 0
34 -37 -246 0
-34 -37 246 0
40 41 247 0
-40 41 -247 0
40 -41 -247 0
-40 -41 247 0
-43 47 248 0
43 47 -248 0
-43 -47 -248 0
43 -47 248 0
-48 50 249 0
48 50 -249 0
-48 -50 -249 0
48 -50 249 0
239 -240 250 0
-239 -240 -250 0
239 240 -250 0
-239 240 250 0
241 -242 251 0
-241 -242 -251 0
241 242 -251 0
-241 242 251 0
243 -244 252 0
-243 -244 -252 0
243 244 -252 0
-243 244 252 0
245 -246 253 0
-245 -246 -253 0
245 246 -253 0
-245 246 253 0
247 -248 254 0
-247 -248 -254 0
247 248 -254 0
-247 248 254 0
249 -250 255 0
-249 -250 -255 0
249 250 -255 0
-249 250 255 0
251 -252 256 0
-251 -252 -256 0
251 252 -256 0
-251 252 256 0
253 -254 257 0
-253 -254 -257 0
253 254 -257 0
-253 254 257 0
-255 -256 257 0
255 -256 -257 0
-255 256 -257 0
255 256 257 0
1 -5 258 0
-1 -5 -258 0
1 5 -258 0
-1 5 258 0
-7 -8 259 0
7 -8 -259 0
-7 8 -259 0
7 8 259 0
12 13 260 0
-12 13 -260 0
12 -13 -260 0
-12 -13 260 0
-14 -16 261 0
14 -16 -261 0
-14 16 -261 0
14 16 261 0
-18 19 262 0
18 19 -262 0
-18 -19 -262 0
18 -19 262 0
21 26 263 0
-21 26 -263 0
21 -26 -263 0
-21 -26 263 0
-30 -31 264 0
30 -31 -264 0
-30 31 -264 0
30 31 264 0
33 34 265 0
-33 34 -265 0
33 -34 -265 0
-33 -34 265 0
45 -46 266 0
-45 -46 -266 0
45 46 -266 0
-45 46 266 0
257 -258 267 0
-257 -258 -267 0
257 258 -267 0
-257 258 267 0
259 -260 268 0
-259 -260 -268 0
259 260 -268 0
-259 260 268 0
261 -262 269 0
-261 -262 -269 0
261 262 -269 0
-261 262 269 0
263 -264 270 0
-263 -264 -270 0
263 264 -270 0
-263 264 270 0
265 -266 271 0
-265 -266 -271 0
265 266 -271 0
-265 266 271 0
267 -268 272 0
-267 -268 -272 0
267 268 -272 0
-267 268 272 0
269 -270 273 0
-269 -270 -273 0
269 270 -273 0
-269 270 273 0
-271 -272 273 0
271 -272 -273 0
-271 272 -273 0
271 272 273 0
3 -4 274 0
-3 -4 -274 0
3 4 -274 0
-3 4 274 0
5 -6 275 0
-5 -6 -275 0
5 6 -275 0
-5 6 275 0
-7 -11 276 0
7 -11 -276 0
-7 11 -276 0
7 11 276 0
13 -14 277 0
-13 -14 -277 0
13 14 -277 0
-13 14 277 0
19 -21 278 0
-19 -21 -278 0
19 21 -278 0
-19 21 278 0
22 -23 279 0
-22 -23 -279 0
22 23 -279 0
-22 23 279 0
26 -27 280 0
-26 -27 -280 0
26 27 -280 0
-26 27 280 0
29 31 281 0
-29 31 -281 0
29 -31 -281 0
-29 -31 281 0
32 34 282 0
-32 34 -282 0
32 -34 -282 0
-32 -34 282 0
35 36 283 0
-35 36 -283 0
35 -36 -283 0
-35 -36 283 0
-41 47 284 0
41 47 -284 0
-41 -47 -284 0
41 -47 284 0
48 49 285 0
-48 49 -285 0
48 -49 -285 0
-48 -49 285 0
274 -275 286 0
-274 -275 -286 0
274 275 -286 0
-274 275 286 0
276 -277 287 0
-276 -277 -287 0
276 277 -287 0
-276 277 287 0
278 -279 288 0
-278 -279 -288 0
278 279 -288 0
-278 279 288 0
280 -281 289 0
-280 -281 -289 0
280 281 -289 0
-280 281 289 0
282 -283 290 0
-282 -283 -290 0
282 283 -290 0
-282 283 290 0
284 -285 291 0
-284 -285 -291 0
284 285 -291 0
-284 285 291 0
286 -287 292 0
-286 -287 -292 0
286 287 -292 0
-286 287 292 0
288 -289 293 0
-288 -289 -293 0
288 289 -293 0
-288 289 293 0
290 -291 294 0
-290 -291 -294 0
290 291 -294 0
-290 291 294 0
-292 -293 294 0
292 -293 -294 0
-292 293 -294 0
292 293 294 0
2 5 295 0
-2 5 -295 0
2 -5 -295 0
-2 -5 295 0
8 -11 296 0
-8 -11 -296 0
8 11 -296 0
-8 11 296 0
12 -13 297 0
-12 -13 -297 0
12 13 -297 0
-12 13 297 0
-15 18 298 0
15 18 -298 0
-15 -18 -298 0
15 -18 298 0
19 -20 299 0
-19 -20 -299 0
19 20 -299 0
-19 20 299 0
-21 22 300 0
21 22 -300 0
-21 -22 -300 0
21 -22 300 0
-23 -24 301 0
23 -24 -301 0
-23 24 -301 0
23 24 301 0
25 -27 302 0
-25 -27 -302 0
25 27 -302 0
-25 27 302 0
28 33 303 0
-28 33 -303 0
28 -33 -303 0
-28 -33 303 0
35 39 304 0
-35 39 -304 0
35 -39 -304 0
-35 -39 304 0
46 47 305 0
-46 47 -305 0
46 -47 -305 0
-46 -47 305 0
294 -295 306 0
-294 -295 -306 0
294 295 -306 0
-294 295 306 0
296 -297 307 0
-296 -297 -307 0
296 297 -307 0
-296 297 307 0
298 -299 308 0
-298 -299 -308 0
298 299 -308 0
-298 299 308 0
300 -301 309 0
-300 -301 -309 0
300 301 -309 0
-300 301 309 0
302 -303 310 0
-302 -303 -310 0
302 303 -310 0
-302 303 310 0
304 -305 311 0
-304 -305 -311 0
304 305 -311 0
-304 305 311 0
306 -307 312 0
-306 -307 -312 0
306 307 -312 0
-306 307 312 0
308 -309 313 0
-308 -309 -313 0
308 309 -313 0
-308 309 313 0
310 -311 314 0
-310 -311 -314 0
310 311 -314 0
-310 311 314 0
-312 -313 314 0
312 -313 -314 0
-312 313 -314 0
312 313 314 0
2 -5 315 0
-2 -5 -315 0
2 5 -315 0
-2 5 315 0
-10 -11 316 0
10 -11 -316 0
-10 11 -316 0
10 11 316 0
-12 13 317 0
12 13 -317 0
-12 -13 -317 0
12 -13 317 0
-14 20 318 0
14 20 -318 0
-14 -20 -318 0
14 -20 318 0
-21 -23 319 0
21 -23 -319 0
-21 23 -319 0
21 23 319 0
-25 -26 320 0
25 -26 -320 0
-25 26 -320 0
25 26 320 0
-28 -33 321 0
28 -33 -321 0
-28 33 -321 0
28 33 321 0
-35 39 322 0
35 39 -322 0
-35 -39 -322 0
35 -39 322 0
-40 -42 323 0
40 -42 -323 0
-40 42 -323 0
40 42 323 0
43 44 324 0
-43 44 -324 0
43 -44 -324 0
-43 -44 324 0
314 -315 325 0
-314 -315 -325 0
314 315 -325 0
-314 315 325 0
316 -317 326 0
-316 -317 -326 0
316 317 -326 0
-316 317 326 0
318 -319 327 0
-318 -319 -327 0
318 319 -327 0
-318 319 327 0
320 -321 328 0
-320 -321 -328 0
320 321 -328 0
-320 321 328 0
322 -323 329 0
-322 -323 -329 0
322 323 -329 0
-322 323 329 0
324 -325 330 0
-324 -325 -330 0
324 325 -330 0
-324 325 330 0
326 -327 331 0
-326 -327 -331 0
326 327 -331 0
-326 327 331 0
328 -329 332 0
-328 -329 -332 0
328 329 -332 0
-328 329 332 0
-330 -331 332 0
330 -331 -332 0
-330 331 -332 0
330 331 332 0
-2 4 333 0
2 4 -333 0
-2 -4 -333 0
2 -4 333 0
5 -7 334 0
-5 -7 -334 0
5 7 -334 0
-5 7 334 0
8 9 335 0
-8 9 -335 0
8 -9 -335 0
-8 -9 335 0
10 -12 336 0
-10 -12 -336 0
10 12 -336 0
-10 12 336 0
-14 -15 337 0
14 -15 -337 0
-14 15 -337 0
14 15 337 0
16 17 338 0
-16 17 -338 0
16 -17 -338 0
-16 -17 338 0
-18 19 339 0
18 19 -339 0
-18 -19 -339 0
18 -19 339 0
-20 23 340 0
20 23 -340 0
-20 -23 -340 0
20 -23 340 0
24 -29 341 0
-24 -29 -341 0
24 29 -341 0
-24 29 341 0
32 35 342 0
-32 35 -342 0
32 -35 -342 0
-32 -35 342 0
37 38 343 0
-37 38 -343 0
37 -38 -343 0
-37 -38 343 0
-39 -40 344 0
39 -40 -344 0
-39 40 -344 0
39 40 344 0
41 -42 345 0
-41 -42 -345 0
41 42 -345 0
-41 42 345 0
-43 44 346 0
43 44 -346 0
-43 -44 -346 0
43 -44 346 0
-45 46 347 0
45 46 -347 0
-45 -46 -347 0
45 -46 347 0
47 48 348 0
-47 48 -348 0
47 -48 -348 0
-47 -48 348 0
-49 -50 349 0
49 -50 -349 0
-49 50 -349 0
49 50 349 0
333 -334 350 0
-333 -334 -350 0
333 334 -350 0
-333 334 350 0
335 -336 351 0
-335 -336 -351 0
335 336 -351 0
-335 336 351 0
337 -338 352 0
-337 -338 -352 0
337 338 -352 0
-337 338 352 0
339 -340 353 0
-339 -340 -353 0
339 340 -353 0
-339 340 353 0
341 -342 354 0
-341 -342 -354 0
341 342 -354 0
-341 342 354 0
343 -344 355 0
-343 -344 -355 0
343 344 -355 0
-343 344 355 0
345 -346 356 0
-345 -346 -356 0
345 346 -356 0
-345 346 356 0
347 -348 357 0
-347 -348 -357 0
347 348 -357 0
-347 348 357 0
349 -350 358 0
-349 -350 -358 0
349 350 -358 0
-349 350 358 0
351 -352 359 0
-351 -352 -359 0
351 352 -359 0
-351 352 359 0
353 -354 360 0
-353 -354 -360 0
353 354 -360 0
-353 354 360 0
355 -356 361 0
-355 -356 -361 0
355 356 -361 0
-355 356 361 0
357 -358 362 0
-357 -358 -362 0
357 358 -362 0
-357 358 362 0
359 -360 363 0
-359 -360 -363 0
359 360 -363 0
-359 360 363 0
-361 -362 363 0
361 -362 -363 0
-361 362 -363 0
361 362 363 0
1 2 364 0
-1 2 -364 0
1 -2 -364 0
-1 -2 364 0
-3 -4 365 0
3 -4 -365 0
-3 4 -365 0
3 4 365 0
-6 7 366 0
6 7 -366 0
-6 -7 -366 0
6 -7 366 0
-8 10 367 0
8 10 -367 0
-8 -10 -367 0
8 -10 367 0
-12 13 368 0
12 13 -368 0
-12 -13 -368 0
12 -13 368 0
-16 17 369 0
16 17 -369 0
-16 -17 -369 0
16 -17 369 0
18 19 370 0
-18 19 -370 0
18 -19 -370 0
-18 -19 370 0
20 21 371 0
-20 21 -371 0
20 -21 -371 0
-20 -21 371 0
24 -25 372 0
-24 -25 -372 0
24 25 -372 0
-24 25 372 0
28 -30 373 0
-28 -30 -373 0
28 30 -373 0
-28 30 373 0
31 -35 374 0
-31 -35 -374 0
31 35 -374 0
-31 35 374 0
36 39 375 0
-36 39 -375 0
36 -39 -375 0
-36 -39 375 0
41 43 376 0
-41 43 -376 0
41 -43 -376 0
-41 -43 376 0
44 46 377 0
-44 46 -377 0
44 -46 -377 0
-44 -46 377 0
363 -364 378 0
-363 -364 -378 0
363 364 -378 0
-363 364 378 0
365 -366 379 0
-365 -366 -379 0
365 366 -379 0
-365 366 379 0
367 -368 380 0
-367 -368 -380 0
367 368 -380 0
-367 368 380 0
369 -370 381 0
-369 -370 -381 0
369 370 -381 0
-369 370 381 0
371 -372 382 0
-371 -372 -382 0
371 372 -382 0
-371 372 382 0
373 -374 383 0
-373 -374 -383 0
373 374 -383 0
-373 374 383 0
375 -376 384 0
-375 -376 -384 0
375 376 -384 0
-375 376 384 0
377 -378 385 0
-377 -378 -385 0
377 378 -385 0
-377 378 385 0
379 -380 386 0
-379 -380 -386 0
379 380 -386 0
-379 380 386 0
381 -382 387 0
-381 -382 -387 0
381 382 -387 0
-381 382 387 0
383 -384 388 0
-383 -384 -388 0
383 384 -388 0
-383 384 388 0
385 -386 389 0
-385 -386 -389 0
385 386 -389 0
-385 386 389 0
387 -388 390 0
-387 -388 -390 0
387 388 -390 0
-387 388 390 0
389 390 0
-389 -390 0
2 -4 391 0
-2 -4 -391 0
2 4 -391 0
-2 4 391 0
7 9 392 0
-7 9 -392 0
7 -9 -392 0
-7 -9 392 0
10 -11 393 0
-10 -11 -393 0
10 11 -393 0
-10 11 393 0
18 -19 394 0
-18 -19 -394 0
18 19 -394 0
-18 19 394 0
-22 23 395 0
22 23 -395 0
-22 -23 -395 0
22 -23 395 0
-25 -29 396 0
25 -29 -396 0
-25 29 -396 0
25 29 396 0
-30 31 397 0
30 31 -397 0
-30 -31 -397 0
30 -31 397 0
-32 -34 398 0
32 -34 -398 0
-32 34 -398 0
32 34 398 0
35 41 399 0
-35 41 -399 0
35 -41 -399 0
-35 -41 399 0
42 -44 400 0
-42 -44 -400 0
42 44 -400 0
-42 44 400 0
-45 -47 401 0
45 -47 -401 0
-45 47 -401 0
45 47 401 0
390 -391 402 0
-390 -391 -402 0
390 391 -402 0
-390 391 402 0
392 -393 403 0
-392 -393 -403 0
392 393 -403 0
-392 393 403 0
394 -395 404 0
-394 -395 -404 0
394 395 -404 0
-394 395 404 0
396 -397 405 0
-396 -397 -405 0
396 397 -405 0
-396 397 405 0
398 -399 406 0
-398 -399 -406 0
398 399 -406 0
-398 399 406 0
400 -401 407 0
-400 -401 -407 0
400 401 -407 0
-400 401 407 0
402 -403 408 0
-402 -403 -408 0
402 403 -408 0
-402 403 408 0
404 -405 409 0
-404 -405 -409 0
404 405 -409 0
-404 405 409 0
406 -407 410 0
-406 -407 -410 0
406 407 -410 0
-406 407 410 0
-408 -409 410 0
408 -409 -410 0
-408 409 -410 0
408 409 410 0
-1 -2 411 0
1 -2 -411 0
-1 2 -411 0
1 2 411 0
-3 4 412 0
3 4 -412 0
-3 -4 -412 0
3 -4 412 0
-5 6 413 0
5 6 -413 0
-5 -6 -413 0
5 -6 413 0
7 -8 414 0
-7 -8 -414 0
7 8 -414 0
-7 8 414 0
-11 -12 415 0
11 -12 -415 0
-11 12 -415 0
11 12 415 0
-15 -17 416 0
15 -17 -416 0
-15 17 -416 0
15 17 416 0
18 -19 417 0
-18 -19 -417 0
18 19 -417 0
-18 19 417 0
-21 -23 418 0
21 -23 -418 0
-21 23 -418 0
21 23 418 0
-24 -26 419 0
24 -26 -419 0
-24 26 -419 0
24 26 419 0
27 -29 420 0
-27 -29 -420 0
27 29 -420 0
-27 29 420 0
30 -34 421 0
-30 -34 -421 0
30 34 -421 0
-30 34 421 0
38 -40 422 0
-38 -40 -422 0
38 40 -422 0
-38 40 422 0
-46 -48 423 0
46 -48 -423 0
-46 48 -423 0
46 48 423 0
410 -411 424 0
-410 -411 -424 0
410 411 -424 0
-410 411 424 0
412 -413 425 0
-412 -413 -425 0
412 413 -425 0
-412 413 425 0
414 -415 426 0
-414 -415 -426 0
414 415 -426 0
-414 415 426 0
416 -417 427 0
-416 -417 -427 0
416 417 -427 0
-416 417 427 0
418 -419 428 0
-418 -419 -428 0
418 419 -428 0
-418 419 428 0
420 -421 429 0
-420 -421 -429 0
420 421 -429 0
-420 421 429 0
422 -423 430 0
-422 -423 -430 0
422 423 -430 0
-422 423 430 0
424 -425 431 0
-424 -425 -431 0
424 425 -431 0
-424 425 431 0
426 -427 432 0
-426 -427 -432 0
426 427 -432 0
-426 427 432 0
428 -429 433 0
-428 -429 -433 0
428 429 -433 0
-428 429 433 0
430 -431 434 0
-430 -431 -434 0
430 431 -434 0
-430 431 434 0
432 -433 435 0
-432 -433 -435 0
432 433 -435 0
-432 433 435 0
434 435 0
-434 -435 0
3 4 436 0
-3 4 -436 0
3 -4 -436 0
-3 -4 436 0
5 -6 437 0
-5 -6 -437 0
5 6 -437 0
-5 6 437 0
-13 15 438 0
13 15 -438 0
-13 -15 -438 0
13 -15 438 0
-16 -18 439 0
16 -18 -439 0
-16 18 -439 0
16 18 439 0
-20 -24 440 0
20 -24 -440 0
-20 24 -440 0
20 24 440 0
25 -31 441 0
-25 -31 -441 0
25 31 -441 0
-25 31 441 0
-32 -35 442 0
32 -35 -442 0
-32 35 -442 0
32 35 442 0
-36 37 443 0
36 37 -443 0
-36 -37 -443 0
36 -37 443 0
43 44 444 0
-43 44 -444 0
43 -44 -444 0
-43 -44 444 0
435 -436 445 0
-435 -436 -445 0
435 436 -445 0
-435 436 445 0
437 -438 446 0
-437 -438 -446 0
437 438 -446 0
-437 438 446 0
439 -440 447 0
-439 -440 -447 0
439 440 -447 0
-439 440 447 0
441 -442 448 0
-441 -442 -448 0
441 442 -448 0
-441 442 448 0
443 -444 449 0
-443 -444 -449 0
443 444 -449 0
-443 444 449 0
445 -446 450 0
-445 -446 -450 0
445 446 -450 0
-445 446 450 0
447 -448 451 0
-447 -448 -451 0
447 448 -451 0
-447 448 451 0
-449 -450 451 0
449 -450 -451 0
-449 450 -451 0
449 450 451 0
-2 -4 452 0
2 -4 -452 0
-2 4 -452 0
2 4 452 0
-8 12 453 0
8 12 -453 0
-8 -12 -453 0
8 -12 453 0
-14 -16 454 0
14 -16 -454 0
-14 16 -454 0
14 16 454 0
17 20 455 0
-17 20 -455 0
17 -20 -455 0
-17 -20 455 0
26 27 456 0
-26 27 -456 0
26 -27 -456 0
-26 -27 456 0
28 -29 457 0
-28 -29 -457 0
28 29 -457 0
-28 29 457 0
-34 -35 458 0
34 -35 -458 0
-34 35 -458 0
34 35 458 0
-36 -38 459 0
36 -38 -459 0
-36 38 -459 0
36 38 459 0
-41 42 460 0
41 42 -460 0
-41 -42 -460 0
41 -42 460 0
46 -47 461 0
-46 -47 -461 0
46 47 -461 0
-46 47 461 0
-49 -50 462 0
49 -50 -462 0
-49 50 -462 0
49 50 462 0
452 -453 463 0
-452 -453 -463 0
452 453 -463 0
-452 453 463 0
454 -455 464 0
-454 -455 -464 0
454 455 -464 0
-454 455 464 0
456 -457 465 0
-456 -457 -465 0
456 457 -465 0
-456 457 465 0
458 -459 466 0
-458 -459 -466 0
458 459 -466 0
-458 459 466 0
460 -461 467 0
-460 -461 -467 0
460 461 -467 0
-460 461 467 0
462 -463 468 0
-462 -463 -468 0
462 463 -468 0
-462 463 468 0
464 -465 469 0
-464 -465 -469 0
464 465 -469 0
-464 465 469 0
466 -467 470 0
-466 -467 -470 0
466 467 -470 0
-466 467 470 0
-468 -469 470 0
468 -469 -470 0
-468 469 -470 0
468 469 470 0
-2 3 471 0
2 3 -471 0
-2 -3 -471 0
2 -3 471 0
-4 5 472 0
4 5 -472 0
-4 -5 -472 0
4 -5 472 0
6 -8 473 0
-6 -8 -473 0
6 8 -473 0
-6 8 473 0
-11 15 474 0
11 15 -474 0
-11 -15 -474 0
11 -15 474 0
-16 17 475 0
16 17 -475 0
-16 -17 -475 0
16 -17 475 0
-18 -21 476 0
18 -21 -476 0
-18 21 -476 0
18 21 476 0
22 -24 477 0
-22 -24 -477 0
22 24 -477 0
-22 24 477 0
-25 -27 478 0
25 -27 -478 0
-25 27 -478 0
25 27 478 0
29 30 479 0
-29 30 -479 0
29 -30 -479 0
-29 -30 479 0
-33 34 480 0
33 34 -480 0
-33 -34 -480 0
33 -34 480 0
36 37 481 0
-36 37 -481 0
36 -37 -481 0
-36 -37 481 0
42 43 482 0
-42 43 -482 0
42 -43 -482 0
-42 -43 482 0
44 -49 483 0
-44 -49 -483 0
44 49 -483 0
-44 49 483 0
470 -471 484 0
-470 -471 -484 0
470 471 -484 0
-470 471 484 0
472 -473 485 0
-472 -473 -485 0
472 473 -485 0
-472 473 485 0
474 -475 486 0
-474 -475 -486 0
474 475 -486 0
-474 475 486 0
476 -477 487 0
-476 -477 -487 0
476 477 -487 0
-476 477 487 0
478 -479 488 0
-478 -479 -488 0
478 479 -488 0
-478 479 488 0
480 -481 489 0
-480 -481 -489 0
480 481 -489 0
-480 481 489 0
482 -483 490 0
-482 -483 -490 0
482 483 -490 0
-482 483 490 0
484 -485 491 0
-484 -485 -491 0
484 485 -491 0
-484 485 491 0
486 -487 492 0
-486 -487 -492 0
486 487 -492 0
-486 487 492 0
488 -489 493 0
-488 -489 -493 0
488 489 -493 0
-488 489 493 0
490 -491 494 0
-490 -491 -494 0
490 491 -494 0
-490 491 494 0
492 -493 495 0
-492 -493 -495 0
492 493 -495 0
-492 493 495 0
494 495 0
-494 -495 0
-12 496 0
-24 496 0
-12 -24 497 0
-23 496 0
-12 -23 497 0
-24 -23 497 0
-12 -24 -23 498 0
-22 499 0
-21 499 0
-22 -21 500 0
-20 499 0
-22 -20 500 0
-21 -20 500 0
-22 -21 -20 501 0
-496 502 0
-497 503 0
-498 504 0
-499 502 0
-500 503 0
-501 504 0
-496 -499 503 0
-496 -500 504 0
-496 -501 505 0
-497 -499 504 0
-497 -500 505 0
-497 -501 506 0
-498 -499 505 0
-498 -500 506 0
-498 -501 507 0
-19 508 0
-18 508 0
-19 -18 509 0
-17 508 0
-19 -17 509 0
-18 -17 509 0
-19 -18 -17 510 0
-16 511 0
-15 511 0
-16 -15 512 0
-14 511 0
-16 -14 512 0
-15 -14 512 0
-16 -15 -14 513 0
-508 514 0
-509 515 0
-510 516 0
-511 514 0
-512 515 0
-513 516 0
-508 -511 515 0
-508 -512 516 0
-508 -513 517 0
-509 -511 516 0
-509 -512 517 0
-509 -513 518 0
-510 -511 517 0
-510 -512 518 0
-510 -513 519 0
-502 520 0
-504 521 0
-506 522 0
-514 520 0
-516 521 0
-518 522 0
-502 -514 521 0
-502 -516 522 0
-502 -518 523 0
-504 -514 522 0
-504 -516 523 0
-504 -518 524 0
-506 -514 523 0
-506 -516 524 0
-506 -518 525 0
-503 526 0
-505 527 0
-507 528 0
-515 526 0
-517 527 0
-519 528 0
-503 -515 527 0
-503 -517 528 0
-503 -519 529 0
-505 -515 528 0
-505 -517 529 0
-505 -519 530 0
-507 -515 529 0
-507 -517 530 0
-507 -519 531 0
-521 532 0
-526 532 0
-521 -526 533 0
-522 534 0
-527 534 0
-522 -527 535 0
-523 536 0
-528 536 0
-523 -528 537 0
-524 538 0
-529 538 0
-524 -529 539 0
-525 540 0
-530 540 0
-525 -530 541 0
-13 542 0
-25 542 0
-13 -25 543 0
-11 542 0
-13 -11 543 0
-25 -11 543 0
-13 -25 -11 544 0
-10 545 0
-9 545 0
-10 -9 546 0
-8 545 0
-10 -8 546 0
-9 -8 546 0
-10 -9 -8 547 0
-542 548 0
-543 549 0
-544 550 0
-545 548 0
-546 549 0
-547 550 0
-542 -545 549 0
-542 -546 550 0
-542 -547 551 0
-543 -545 550 0
-543 -546 551 0
-543 -547 552 0
-544 -545 551 0
-544 -546 552 0
-544 -547 553 0
-7 554 0
-6 554 0
-7 -6 555 0
-5 554 0
-7 -5 555 0
-6 -5 555 0
-7 -6 -5 556 0
-4 557 0
-3 557 0
-4 -3 558 0
-2 557 0
-4 -2 558 0
-3 -2 558 0
-4 -3 -2 559 0
-554 560 0
-555 561 0
-556 562 0
-557 560 0
-558 561 0
-559 562 0
-554 -557 561 0
-554 -558 562 0
-554 -559 563 0
-555 -557 562 0
-555 -558 563 0
-555 -559 564 0
-556 -557 563 0
-556 -558 564 0
-556 -559 565 0
-548 566 0
-550 567 0
-552 568 0
-560 566 0
-562 567 0
-564 568 0
-548 -560 567 0
-548 -562 568 0
-548 -564 569 0
-550 -560 568 0
-550 -562 569 0
-550 -564 570 0
-552 -560 569 0
-552 -562 570 0
-552 -564 571 0
-549 572 0
-551 573 0
-553 574 0
-561 572 0
-563 573 0
-565 574 0
-549 -561 573 0
-549 -563 574 0
-549 -565 575 0
-551 -561 574 0
-551 -563 575 0
-551 -565 576 0
-553 -561 575 0
-553 -563 576 0
-553 -565 577 0
-567 578 0
-572 578 0
-567 -572 579 0
-568 580 0
-573 580 0
-568 -573 581 0
-569 582 0
-574 582 0
-569 -574 583 0
-570 584 0
-575 584 0
-570 -575 585 0
-571 586 0
-576 586 0
-571 -576 587 0
-1 588 0
-37 588 0
-1 -37 589 0
-49 588 0
-1 -49 589 0
-37 -49 589 0
-1 -37 -49 590 0
-48 591 0
-47 591 0
-48 -47 592 0
-46 591 0
-48 -46 592 0
-47 -46 592 0
-48 -47 -46 593 0
-588 594 0
-589 595 0
-590 596 0
-591 594 0
-592 595 0
-593 596 0
-588 -591 595 0
-588 -592 596 0
-588 -593 597 0
-589 -591 596 0
-589 -592 597 0
-589 -593 598 0
-590 -591 597 0
-590 -592 598 0
-590 -593 599 0
-45 600 0
-44 600 0
-45 -44 601 0
-43 600 0
-45 -43 601 0
-44 -43 601 0
-45 -44 -43 602 0
-42 603 0
-41 603 0
-42 -41 604 0
-40 603 0
-42 -40 604 0
-41 -40 604 0
-42 -41 -40 605 0
-600 606 0
-601 607 0
-602 608 0
-603 606 0
-604 607 0
-605 608 0
-600 -603 607 0
-600 -604 608 0
-600 -605 609 0
-601 -603 608 0
-601 -604 609 0
-601 -605 610 0
-602 -603 609 0
-602 -604 610 0
-602 -605 611 0
-594 612 0
-596 613 0
-598 614 0
-606 612 0
-608 613 0
-610 614 0
-594 -606 613 0
-594 -608 614 0
-594 -610 615 0
-596 -606 614 0
-596 -608 615 0
-596 -610 616 0
-598 -606 615 0
-598 -608 616 0
-598 -610 617 0
-595 618 0
-597 619 0
-599 620 0
-607 618 0
-609 619 0
-611 620 0
-595 -607 619 0
-595 -609 620 0
-595 -611 621 0
-597 -607 620 0
-597 -609 621 0
-597 -611 622 0
-599 -607 621 0
-599 -609 622 0
-599 -611 623 0
-613 624 0
-618 624 0
-613 -618 625 0
-614 626 0
-619 626 0
-614 -619 627 0
-615 628 0
-620 628 0
-615 -620 629 0
-616 630 0
-621 630 0
-616 -621 631 0
-617 632 0
-622 632 0
-617 -622 633 0
-39 634 0
-38 634 0
-39 -38 635 0
-50 634 0
-39 -50 635 0
-38 -50 635 0
-39 -38 -50 636 0
-36 637 0
-35 637 0
-36 -35 638 0
-34 637 0
-36 -34 638 0
-35 -34 638 0
-36 -35 -34 639 0
-634 640 0
-635 641 0
-636 642 0
-637 640 0
-638 641 0
-639 642 0
-634 -637 641 0
-634 -638 642 0
-634 -639 643 0
-635 -637 642 0
-635 -638 643 0
-635 -639 644 0
-636 -637 643 0
-636 -638 644 0
-636 -639 645 0
-33 646 0
-32 646 0
-33 -32 647 0
-31 646 0
-33 -31 647 0
-32 -31 647 0
-33 -32 -31 648 0
-30 649 0
-29 649 0
-30 -29 650 0
-28 651 0
-27 651 0
-28 -27 652 0
-26 651 0
-28 -26 652 0
-27 -26 652 0
-28 -27 -26 653 0
-649 654 0
-650 655 0
-651 654 0
-652 655 0
-653 656 0
-649 -651 655 0
-649 -652 656 0
-649 -653 657 0
-650 -651 656 0
-650 -652 657 0
-650 -653 658 0
-646 659 0
-647 660 0
-648 661 0
-654 659 0
-655 660 0
-656 661 0
-657 662 0
-658 663 0
-646 -654 660 0
-646 -655 661 0
-646 -656 662 0
-646 -657 663 0
-646 -658 664 0
-647 -654 661 0
-647 -655 662 0
-647 -656 663 0
-647 -657 664 0
-647 -658 665 0
-648 -654 662 0
-648 -655 663 0
-648 -656 664 0
-648 -657 665 0
-648 -658 666 0
-640 667 0
-642 668 0
-644 669 0
-659 667 0
-661 668 0
-663 669 0
-665 670 0
-640 -659 668 0
-640 -661 669 0
-640 -663 670 0
-640 -665 671 0
-642 -659 669 0
-642 -661 670 0
-642 -663 671 0
-642 -665 672 0
-644 -659 670 0
-644 -661 671 0
-644 -663 672 0
-644 -665 673 0
-641 674 0
-643 675 0
-645 676 0
-660 674 0
-662 675 0
-664 676 0
-666 677 0
-641 -660 675 0
-641 -662 676 0
-641 -664 677 0
-641 -666 678 0
-643 -660 676 0
-643 -662 677 0
-643 -664 678 0
-643 -666 679 0
-645 -660 677 0
-645 -662 678 0
-645 -664 679 0
-645 -666 680 0
-668 681 0
-674 681 0
-668 -674 682 0
-669 683 0
-675 683 0
-669 -675 684 0
-670 685 0
-676 685 0
-670 -676 686 0
-671 687 0
-677 687 0
-671 -677 688 0
-672 689 0
-678 689 0
-672 -678 690 0
-673 691 0
-679 691 0
-673 -679 692 0
-612 693 0
-627 694 0
-631 695 0
-667 693 0
-684 694 0
-688 695 0
-692 696 0
-612 -667 694 0
-612 -684 695 0
-612 -688 696 0
-612 -692 697 0
-627 -667 695 0
-627 -684 696 0
-627 -688 697 0
-631 -667 696 0
-631 -684 697 0
-625 698 0
-629 699 0
-633 700 0
-682 698 0
-686 699 0
-690 700 0
-625 -682 699 0
-625 -686 700 0
-625 -690 701 0
-629 -682 700 0
-629 -686 701 0
-633 -682 701 0
-694 702 0
-698 702 0
-694 -698 703 0
-695 704 0
-699 704 0
-695 -699 705 0
-696 706 0
-700 706 0
-696 -700 707 0
-697 708 0
-701 708 0
-697 -701 709 0
-624 710 0
-628 711 0
-632 712 0
-681 710 0
-685 711 0
-689 712 0
-680 713 0
-624 -681 711 0
-624 -685 712 0
-624 -689 713 0
-624 -680 714 0
-628 -681 712 0
-628 -685 713 0
-628 -689 714 0
-632 -681 713 0
-632 -685 714 0
-626 715 0
-630 716 0
-623 717 0
-683 715 0
-687 716 0
-691 717 0
-626 -683 716 0
-626 -687 717 0
-626 -691 718 0
-630 -683 717 0
-630 -687 718 0
-623 -683 718 0
-711 719 0
-715 719 0
-711 -715 720 0
-712 721 0
-716 721 0
-712 -716 722 0
-713 723 0
-717 723 0
-713 -717 724 0
-714 725 0
-718 725 0
-702 726 0
-710 726 0
-702 -710 727 0
-703 728 0
-719 728 0
-703 -719 729 0
-704 730 0
-720 730 0
-704 -720 731 0
-705 732 0
-721 732 0
-705 -721 733 0
-706 734 0
-722 734 0
-706 -722 735 0
-707 736 0
-723 736 0
-707 -723 737 0
-708 738 0
-724 738 0
-708 -724 739 0
-709 740 0
-725 740 0
-566 741 0
-581 742 0
-585 743 0
-693 741 0
-729 742 0
-733 743 0
-737 744 0
-566 -693 742 0
-566 -729 743 0
-566 -733 744 0
-566 -737 745 0
-581 -693 743 0
-581 -729 744 0
-581 -733 745 0
-585 -693 744 0
-585 -729 745 0
-579 746 0
-583 747 0
-587 748 0
-727 746 0
-731 747 0
-735 748 0
-739 749 0
-579 -727 747 0
-579 -731 748 0
-579 -735 749 0
-583 -727 748 0
-583 -731 749 0
-587 -727 749 0
-742 750 0
-746 750 0
-742 -746 751 0
-743 752 0
-747 752 0
-743 -747 753 0
-744 754 0
-748 754 0
-744 -748 755 0
-745 756 0
-749 756 0
-745 -749 757 0
-578 758 0
-582 759 0
-586 760 0
-726 758 0
-730 759 0
-734 760 0
-738 761 0
-578 -726 759 0
-578 -730 760 0
-578 -734 761 0
-578 -738 762 0
-582 -726 760 0
-582 -730 761 0
-582 -734 762 0
-586 -726 761 0
-586 -730 762 0
-580 763 0
-584 764 0
-577 765 0
-728 763 0
-732 764 0
-736 765 0
-740 766 0
-580 -728 764 0
-580 -732 765 0
-580 -736 766 0
-584 -728 765 0
-584 -732 766 0
-577 -728 766 0
-759 767 0
-763 767 0
-759 -763 768 0
-760 769 0
-764 769 0
-760 -764 770 0
-761 771 0
-765 771 0
-761 -765 772 0
-762 773 0
-766 773 0
-750 774 0
-758 774 0
-750 -758 775 0
-751 776 0
-767 776 0
-751 -767 777 0
-752 778 0
-768 778 0
-752 -768 779 0
-753 780 0
-769 780 0
-753 -769 781 0
-754 782 0
-770 782 0
-754 -770 783 0
-755 784 0
-771 784 0
-755 -771 785 0
-756 786 0
-772 786 0
-756 -772 787 0
-757 788 0
-773 788 0
-520 789 0
-535 790 0
-539 791 0
-741 789 0
-777 790 0
-781 791 0
-785 792 0
-520 -741 790 0
-520 -777 791 0
-520 -781 792 0
-520 -785 793 0
-535 -741 791 0
-535 -777 792 0
-535 -781 793 0
-539 -741 792 0
-539 -777 793 0
-533 794 0
-537 795 0
-541 796 0
-775 794 0
-779 795 0
-783 796 0
-787 797 0
-533 -775 795 0
-533 -779 796 0
-533 -783 797 0
-537 -775 796 0
-537 -779 797 0
-541 -775 797 0
-790 798 0
-794 798 0
-790 -794 799 0
-791 800 0
-795 800 0
-791 -795 801 0
-792 802 0
-796 802 0
-792 -796 803 0
-793 804 0
-797 804 0
-793 -797 805 0
-532 806 0
-536 807 0
-540 808 0
-774 806 0
-778 807 0
-782 808 0
-786 809 0
-532 -774 807 0
-532 -778 808 0
-532 -782 809 0
-532 -786 810 0
-536 -774 808 0
-536 -778 809 0
-536 -782 810 0
-540 -774 809 0
-540 -778 810 0
-534 811 0
-538 812 0
-531 813 0
-776 811 0
-780 812 0
-784 813 0
-788 814 0
-534 -776 812 0
-534 -780 813 0
-534 -784 814 0
-538 -776 813 0
-538 -780 814 0
-531 -776 814 0
-807 815 0
-811 815 0
-807 -811 816 0
-808 817 0
-812 817 0
-808 -812 818 0
-809 819 0
-813 819 0
-809 -813 820 0
-810 821 0
-814 821 0
-798 822 0
-806 822 0
-798 -806 823 0
-799 824 0
-815 824 0
-799 -815 825 0
-800 826 0
-816 826 0
-800 -816 827 0
-801 828 0
-817 828 0
-801 -817 829 0
-802 830 0
-818 830 0
-802 -818 831 0
-803 832 0
-819 832 0
-803 -819 833 0
-804 834 0
-820 834 0
-804 -820 835 0
-805 836 0
-821 836 0
-836 0
